(set-info :smt-lib-version 2.6)
(set-logic QF_LRA)
(set-info :source |
TLP-GP automated DTP to SMT-LIB encoding for planning
by F.Maris and P.Regnier, IRIT - Universite Paul Sabatier, Toulouse

|)
(set-info :category "industrial")
(set-info :status sat)
(declare-fun St_spy_variable () Real)
(declare-fun t_Init_0 () Real)
(declare-fun t_Goal_6 () Real)
(declare-fun t_BAKE_CERAMIC2_p2_k2_2 () Real)
(declare-fun t_TREAT_CERAMIC2_p2_3 () Real)
(declare-fun t_BAKE_CERAMIC2_p2_k2_3 () Real)
(declare-fun t_BAKE_CERAMIC1_p1_k2_2 () Real)
(declare-fun t_TREAT_CERAMIC1_p1_3 () Real)
(declare-fun t_FIRE_KILN2_k2_2 () Real)
(declare-fun t_BAKE_CERAMIC1_p1_k2_3 () Real)
(declare-fun t_MAKE_STRUCTURE_p1_p2_4 () Real)
(declare-fun t_BAKE_STRUCTURE_p1_p2_k1_5 () Real)
(declare-fun t_BAKE_CERAMIC3_p4_k2_2 () Real)
(declare-fun t_TREAT_CERAMIC3_p4_3 () Real)
(declare-fun t_BAKE_CERAMIC3_p4_k1_3 () Real)
(declare-fun t_BAKE_CERAMIC2_p3_k2_2 () Real)
(declare-fun t_TREAT_CERAMIC2_p3_3 () Real)
(declare-fun t_BAKE_CERAMIC2_p3_k2_3 () Real)
(declare-fun t_MAKE_STRUCTURE_p3_p4_4 () Real)
(declare-fun t_BAKE_STRUCTURE_p3_p4_k1_5 () Real)
(declare-fun t_BAKE_CERAMIC3_p6_k2_2 () Real)
(declare-fun t_TREAT_CERAMIC3_p6_3 () Real)
(declare-fun t_BAKE_CERAMIC3_p6_k1_3 () Real)
(declare-fun t_FIRE_KILN2_k2_1 () Real)
(declare-fun t_BAKE_CERAMIC3_p5_k2_2 () Real)
(declare-fun t_TREAT_CERAMIC3_p5_3 () Real)
(declare-fun t_FIRE_KILN1_k1_2 () Real)
(declare-fun t_BAKE_CERAMIC3_p5_k1_3 () Real)
(declare-fun t_MAKE_STRUCTURE_p5_p6_4 () Real)
(declare-fun t_BAKE_STRUCTURE_p5_p6_k1_5 () Real)
(declare-fun t_FIRE_KILN1_k1_1 () Real)
(declare-fun t_BAKE_CERAMIC3_p7_k1_2 () Real)
(assert (let ((?v_14 (- t_Goal_6 t_BAKE_STRUCTURE_p1_p2_k1_5)) (?v_25 (- t_Goal_6 t_BAKE_STRUCTURE_p3_p4_k1_5)) (?v_35 (- t_Goal_6 t_BAKE_STRUCTURE_p5_p6_k1_5)) (?v_37 (- t_Goal_6 t_BAKE_CERAMIC3_p7_k1_2)) (?v_31 (- t_BAKE_CERAMIC3_p5_k2_2 t_FIRE_KILN2_k2_1))) (let ((?v_2 (<= ?v_31 15)) (?v_26 (- t_BAKE_CERAMIC3_p6_k2_2 t_FIRE_KILN2_k2_1))) (let ((?v_3 (<= ?v_26 15)) (?v_20 (- t_BAKE_CERAMIC2_p3_k2_3 t_FIRE_KILN2_k2_1))) (let ((?v_4 (<= ?v_20 10)) (?v_18 (- t_BAKE_CERAMIC2_p3_k2_2 t_FIRE_KILN2_k2_1))) (let ((?v_5 (<= ?v_18 10)) (?v_15 (- t_BAKE_CERAMIC3_p4_k2_2 t_FIRE_KILN2_k2_1))) (let ((?v_6 (<= ?v_15 15)) (?v_10 (- t_BAKE_CERAMIC1_p1_k2_2 t_FIRE_KILN2_k2_1))) (let ((?v_7 (<= ?v_10 5)) (?v_9 (- t_BAKE_CERAMIC2_p2_k2_3 t_FIRE_KILN2_k2_1))) (let ((?v_8 (<= ?v_9 10)) (?v_0 (- t_BAKE_CERAMIC2_p2_k2_2 t_FIRE_KILN2_k2_1)) (?v_1 (- t_TREAT_CERAMIC2_p2_3 t_BAKE_CERAMIC2_p2_k2_2)) (?v_11 (- t_TREAT_CERAMIC1_p1_3 t_BAKE_CERAMIC1_p1_k2_2)) (?v_12 (- t_BAKE_CERAMIC1_p1_k2_3 t_FIRE_KILN2_k2_2)) (?v_36 (- t_BAKE_CERAMIC3_p7_k1_2 t_FIRE_KILN1_k1_1))) (let ((?v_21 (<= ?v_36 3)) (?v_34 (- t_BAKE_STRUCTURE_p5_p6_k1_5 t_FIRE_KILN1_k1_1))) (let ((?v_22 (<= ?v_34 5)) (?v_24 (- t_BAKE_STRUCTURE_p3_p4_k1_5 t_FIRE_KILN1_k1_1))) (let ((?v_23 (<= ?v_24 5)) (?v_13 (- t_BAKE_STRUCTURE_p1_p2_k1_5 t_FIRE_KILN1_k1_1)) (?v_16 (- t_TREAT_CERAMIC3_p4_3 t_BAKE_CERAMIC3_p4_k2_2)) (?v_33 (- t_BAKE_CERAMIC3_p5_k1_3 t_FIRE_KILN1_k1_2))) (let ((?v_28 (<= ?v_33 3)) (?v_30 (- t_BAKE_CERAMIC3_p6_k1_3 t_FIRE_KILN1_k1_2))) (let ((?v_29 (<= ?v_30 3)) (?v_17 (- t_BAKE_CERAMIC3_p4_k1_3 t_FIRE_KILN1_k1_2)) (?v_19 (- t_TREAT_CERAMIC2_p3_3 t_BAKE_CERAMIC2_p3_k2_2)) (?v_27 (- t_TREAT_CERAMIC3_p6_3 t_BAKE_CERAMIC3_p6_k2_2)) (?v_32 (- t_TREAT_CERAMIC3_p5_3 t_BAKE_CERAMIC3_p5_k2_2)) (?v_45 (- t_BAKE_CERAMIC1_p1_k2_3 t_FIRE_KILN2_k2_1)) (?v_44 (> (- t_FIRE_KILN2_k2_2 t_FIRE_KILN2_k2_1) 20))) (let ((?v_40 (or (<= ?v_45 5) ?v_44)) (?v_41 (> (- t_FIRE_KILN2_k2_1 t_FIRE_KILN2_k2_2) 20)) (?v_39 (- t_BAKE_CERAMIC2_p2_k2_2 t_BAKE_CERAMIC2_p2_k2_3)) (?v_38 (- t_BAKE_CERAMIC2_p2_k2_3 t_BAKE_CERAMIC2_p2_k2_2)) (?v_43 (- t_BAKE_CERAMIC1_p1_k2_2 t_BAKE_CERAMIC1_p1_k2_3)) (?v_42 (- t_BAKE_CERAMIC1_p1_k2_3 t_BAKE_CERAMIC1_p1_k2_2)) (?v_63 (- t_BAKE_CERAMIC3_p5_k1_3 t_FIRE_KILN1_k1_1)) (?v_46 (> (- t_FIRE_KILN1_k1_2 t_FIRE_KILN1_k1_1) 8))) (let ((?v_53 (or (<= ?v_63 3) ?v_46)) (?v_60 (- t_BAKE_CERAMIC3_p6_k1_3 t_FIRE_KILN1_k1_1))) (let ((?v_54 (or (<= ?v_60 3) ?v_46)) (?v_50 (- t_BAKE_CERAMIC3_p4_k1_3 t_FIRE_KILN1_k1_1)) (?v_49 (> (- t_FIRE_KILN1_k1_1 t_FIRE_KILN1_k1_2) 8)) (?v_48 (- t_BAKE_CERAMIC3_p4_k2_2 t_BAKE_CERAMIC3_p4_k1_3)) (?v_47 (- t_BAKE_CERAMIC3_p4_k1_3 t_BAKE_CERAMIC3_p4_k2_2))) (let ((?v_58 (or (<= (- t_BAKE_CERAMIC3_p7_k1_2 t_FIRE_KILN1_k1_2) 3) ?v_49)) (?v_59 (or (<= (- t_BAKE_STRUCTURE_p5_p6_k1_5 t_FIRE_KILN1_k1_2) 5) ?v_49)) (?v_55 (- t_BAKE_STRUCTURE_p3_p4_k1_5 t_FIRE_KILN1_k1_2)) (?v_52 (- t_BAKE_CERAMIC2_p3_k2_2 t_BAKE_CERAMIC2_p3_k2_3)) (?v_51 (- t_BAKE_CERAMIC2_p3_k2_3 t_BAKE_CERAMIC2_p3_k2_2)) (?v_57 (- t_BAKE_CERAMIC3_p6_k2_2 t_BAKE_CERAMIC3_p6_k1_3)) (?v_56 (- t_BAKE_CERAMIC3_p6_k1_3 t_BAKE_CERAMIC3_p6_k2_2)) (?v_62 (- t_BAKE_CERAMIC3_p5_k2_2 t_BAKE_CERAMIC3_p5_k1_3)) (?v_61 (- t_BAKE_CERAMIC3_p5_k1_3 t_BAKE_CERAMIC3_p5_k2_2))) (and (= St_spy_variable (+ 1 t_Init_0)) (>= t_Goal_6 t_Init_0) (>= (- t_BAKE_CERAMIC2_p2_k2_2 t_Init_0) 0) (>= (- t_Goal_6 t_BAKE_CERAMIC2_p2_k2_2) 10) (>= (- t_TREAT_CERAMIC2_p2_3 t_Init_0) 0) (>= (- t_Goal_6 t_TREAT_CERAMIC2_p2_3) 2) (>= (- t_BAKE_CERAMIC2_p2_k2_3 t_Init_0) 0) (>= (- t_Goal_6 t_BAKE_CERAMIC2_p2_k2_3) 10) (>= (- t_BAKE_CERAMIC1_p1_k2_2 t_Init_0) 0) (>= (- t_Goal_6 t_BAKE_CERAMIC1_p1_k2_2) 15) (>= (- t_TREAT_CERAMIC1_p1_3 t_Init_0) 0) (>= (- t_Goal_6 t_TREAT_CERAMIC1_p1_3) 3) (>= (- t_FIRE_KILN2_k2_2 t_Init_0) 0) (>= (- t_Goal_6 t_FIRE_KILN2_k2_2) 20) (>= (- t_BAKE_CERAMIC1_p1_k2_3 t_Init_0) 0) (>= (- t_Goal_6 t_BAKE_CERAMIC1_p1_k2_3) 15) (>= (- t_MAKE_STRUCTURE_p1_p2_4 t_Init_0) 0) (>= (- t_Goal_6 t_MAKE_STRUCTURE_p1_p2_4) 1) (>= (- t_BAKE_STRUCTURE_p1_p2_k1_5 t_Init_0) 0) (>= ?v_14 3) (>= (- t_BAKE_CERAMIC3_p4_k2_2 t_Init_0) 0) (>= (- t_Goal_6 t_BAKE_CERAMIC3_p4_k2_2) 5) (>= (- t_TREAT_CERAMIC3_p4_3 t_Init_0) 0) (>= (- t_Goal_6 t_TREAT_CERAMIC3_p4_3) 1) (>= (- t_BAKE_CERAMIC3_p4_k1_3 t_Init_0) 0) (>= (- t_Goal_6 t_BAKE_CERAMIC3_p4_k1_3) 5) (>= (- t_BAKE_CERAMIC2_p3_k2_2 t_Init_0) 0) (>= (- t_Goal_6 t_BAKE_CERAMIC2_p3_k2_2) 10) (>= (- t_TREAT_CERAMIC2_p3_3 t_Init_0) 0) (>= (- t_Goal_6 t_TREAT_CERAMIC2_p3_3) 2) (>= (- t_BAKE_CERAMIC2_p3_k2_3 t_Init_0) 0) (>= (- t_Goal_6 t_BAKE_CERAMIC2_p3_k2_3) 10) (>= (- t_MAKE_STRUCTURE_p3_p4_4 t_Init_0) 0) (>= (- t_Goal_6 t_MAKE_STRUCTURE_p3_p4_4) 1) (>= (- t_BAKE_STRUCTURE_p3_p4_k1_5 t_Init_0) 0) (>= ?v_25 3) (>= (- t_BAKE_CERAMIC3_p6_k2_2 t_Init_0) 0) (>= (- t_Goal_6 t_BAKE_CERAMIC3_p6_k2_2) 5) (>= (- t_TREAT_CERAMIC3_p6_3 t_Init_0) 0) (>= (- t_Goal_6 t_TREAT_CERAMIC3_p6_3) 1) (>= (- t_BAKE_CERAMIC3_p6_k1_3 t_Init_0) 0) (>= (- t_Goal_6 t_BAKE_CERAMIC3_p6_k1_3) 5) (>= (- t_FIRE_KILN2_k2_1 t_Init_0) 0) (>= (- t_Goal_6 t_FIRE_KILN2_k2_1) 20) (>= (- t_BAKE_CERAMIC3_p5_k2_2 t_Init_0) 0) (>= (- t_Goal_6 t_BAKE_CERAMIC3_p5_k2_2) 5) (>= (- t_TREAT_CERAMIC3_p5_3 t_Init_0) 0) (>= (- t_Goal_6 t_TREAT_CERAMIC3_p5_3) 1) (>= (- t_FIRE_KILN1_k1_2 t_Init_0) 0) (>= (- t_Goal_6 t_FIRE_KILN1_k1_2) 8) (>= (- t_BAKE_CERAMIC3_p5_k1_3 t_Init_0) 0) (>= (- t_Goal_6 t_BAKE_CERAMIC3_p5_k1_3) 5) (>= (- t_MAKE_STRUCTURE_p5_p6_4 t_Init_0) 0) (>= (- t_Goal_6 t_MAKE_STRUCTURE_p5_p6_4) 1) (>= (- t_BAKE_STRUCTURE_p5_p6_k1_5 t_Init_0) 0) (>= ?v_35 3) (>= (- t_FIRE_KILN1_k1_1 t_Init_0) 0) (>= (- t_Goal_6 t_FIRE_KILN1_k1_1) 8) (>= (- t_BAKE_CERAMIC3_p7_k1_2 t_Init_0) 0) (>= ?v_37 5) ?v_2 ?v_3 ?v_4 ?v_5 ?v_6 ?v_7 ?v_8 (<= ?v_0 10) (< ?v_0 10) (>= ?v_0 2) (<= ?v_1 8) (>= ?v_1 0) (>= (- t_MAKE_STRUCTURE_p1_p2_4 t_TREAT_CERAMIC2_p2_3) 2) ?v_2 ?v_3 ?v_4 ?v_5 ?v_6 ?v_7 ?v_8 (< ?v_9 10) (>= ?v_9 2) (>= (- t_MAKE_STRUCTURE_p1_p2_4 t_BAKE_CERAMIC2_p2_k2_3) 10) ?v_2 ?v_3 ?v_4 ?v_5 ?v_6 ?v_7 (< ?v_10 5) (>= ?v_10 2) (<= ?v_11 12) (>= ?v_11 0) (>= (- t_MAKE_STRUCTURE_p1_p2_4 t_TREAT_CERAMIC1_p1_3) 3) (<= ?v_12 5) (>= ?v_12 2) (>= (- t_MAKE_STRUCTURE_p1_p2_4 t_BAKE_CERAMIC1_p1_k2_3) 15) (>= (- t_BAKE_STRUCTURE_p1_p2_k1_5 t_MAKE_STRUCTURE_p1_p2_4) 1) ?v_21 ?v_22 ?v_23 (<= ?v_13 5) (< ?v_13 5) (>= ?v_13 1) (>= ?v_14 4) ?v_2 ?v_3 ?v_4 ?v_5 ?v_6 (< ?v_15 15) (>= ?v_15 2) (<= ?v_16 4) (>= ?v_16 0) (>= (- t_MAKE_STRUCTURE_p3_p4_4 t_TREAT_CERAMIC3_p4_3) 1) ?v_28 ?v_29 (<= ?v_17 3) (< ?v_17 3) (>= ?v_17 1) (>= (- t_MAKE_STRUCTURE_p3_p4_4 t_BAKE_CERAMIC3_p4_k1_3) 5) ?v_2 ?v_3 ?v_4 ?v_5 (< ?v_18 10) (>= ?v_18 2) (<= ?v_19 8) (>= ?v_19 0) (>= (- t_MAKE_STRUCTURE_p3_p4_4 t_TREAT_CERAMIC2_p3_3) 2) ?v_2 ?v_3 ?v_4 (< ?v_20 10) (>= ?v_20 2) (>= (- t_MAKE_STRUCTURE_p3_p4_4 t_BAKE_CERAMIC2_p3_k2_3) 10) (>= (- t_BAKE_STRUCTURE_p3_p4_k1_5 t_MAKE_STRUCTURE_p3_p4_4) 1) ?v_21 ?v_22 ?v_23 (< ?v_24 5) (>= ?v_24 1) (>= ?v_25 4) ?v_2 ?v_3 (< ?v_26 15) (>= ?v_26 2) (<= ?v_27 4) (>= ?v_27 0) (>= (- t_MAKE_STRUCTURE_p5_p6_4 t_TREAT_CERAMIC3_p6_3) 1) ?v_28 ?v_29 (< ?v_30 3) (>= ?v_30 1) (>= (- t_MAKE_STRUCTURE_p5_p6_4 t_BAKE_CERAMIC3_p6_k1_3) 5) ?v_2 (>= ?v_31 2) (<= ?v_32 4) (>= ?v_32 0) (>= (- t_MAKE_STRUCTURE_p5_p6_4 t_TREAT_CERAMIC3_p5_3) 1) ?v_28 (>= ?v_33 1) (>= (- t_MAKE_STRUCTURE_p5_p6_4 t_BAKE_CERAMIC3_p5_k1_3) 5) (>= (- t_BAKE_STRUCTURE_p5_p6_k1_5 t_MAKE_STRUCTURE_p5_p6_4) 1) ?v_21 ?v_22 (< ?v_34 5) (>= ?v_34 1) (>= ?v_35 4) ?v_21 (>= ?v_36 1) (>= ?v_37 6) ?v_40 (or ?v_41 (< (- t_BAKE_CERAMIC2_p2_k2_2 t_FIRE_KILN2_k2_2) 10)) (or (>= (- t_BAKE_CERAMIC2_p2_k2_2 t_MAKE_STRUCTURE_p1_p2_4) 1) (< ?v_39 7)) (or (<= ?v_38 0) (> ?v_38 10)) (or (>= ?v_39 3) (> ?v_38 7)) (or (> ?v_39 10) (< (- t_TREAT_CERAMIC2_p2_3 t_BAKE_CERAMIC2_p2_k2_3) 8)) ?v_40 (or ?v_41 (< (- t_BAKE_CERAMIC2_p2_k2_3 t_FIRE_KILN2_k2_2) 10)) ?v_40 (or ?v_41 (< (- t_BAKE_CERAMIC1_p1_k2_2 t_FIRE_KILN2_k2_2) 5)) (or (>= (- t_BAKE_CERAMIC1_p1_k2_2 t_MAKE_STRUCTURE_p1_p2_4) 1) (< ?v_43 10)) (or (<= ?v_42 0) (> ?v_42 15)) (or (>= ?v_43 5) (> ?v_42 10)) (or (> ?v_43 15) (< (- t_TREAT_CERAMIC1_p1_3 t_BAKE_CERAMIC1_p1_k2_3) 12)) (or (<= (- t_BAKE_CERAMIC3_p5_k2_2 t_FIRE_KILN2_k2_2) 15) ?v_41) (or (<= (- t_BAKE_CERAMIC3_p6_k2_2 t_FIRE_KILN2_k2_2) 15) ?v_41) (or (<= (- t_BAKE_CERAMIC2_p3_k2_3 t_FIRE_KILN2_k2_2) 10) ?v_41) (or (<= (- t_BAKE_CERAMIC2_p3_k2_2 t_FIRE_KILN2_k2_2) 10) ?v_41) (or (<= (- t_BAKE_CERAMIC3_p4_k2_2 t_FIRE_KILN2_k2_2) 15) ?v_41) (or ?v_44 (< ?v_45 5)) ?v_53 ?v_54 (or (<= ?v_50 3) ?v_46) (or ?v_49 (< (- t_BAKE_STRUCTURE_p1_p2_k1_5 t_FIRE_KILN1_k1_2) 5)) (or (>= (- t_BAKE_CERAMIC3_p4_k2_2 t_MAKE_STRUCTURE_p3_p4_4) 1) (< ?v_48 4)) (or (<= ?v_47 0) (> ?v_47 5)) (or (>= ?v_48 1) (> ?v_47 4)) (or (> ?v_48 5) (< (- t_TREAT_CERAMIC3_p4_3 t_BAKE_CERAMIC3_p4_k1_3) 4)) ?v_58 ?v_59 (or (<= ?v_55 5) ?v_49) (or ?v_46 (< ?v_50 3)) (or (>= (- t_BAKE_CERAMIC2_p3_k2_2 t_MAKE_STRUCTURE_p3_p4_4) 1) (< ?v_52 7)) (or (<= ?v_51 0) (> ?v_51 10)) (or (>= ?v_52 3) (> ?v_51 7)) (or (> ?v_52 10) (< (- t_TREAT_CERAMIC2_p3_3 t_BAKE_CERAMIC2_p3_k2_3) 8)) ?v_53 ?v_54 (or ?v_49 (< ?v_55 5)) (or (>= (- t_BAKE_CERAMIC3_p6_k2_2 t_MAKE_STRUCTURE_p5_p6_4) 1) (< ?v_57 4)) (or (<= ?v_56 0) (> ?v_56 5)) (or (>= ?v_57 1) (> ?v_56 4)) (or (> ?v_57 5) (< (- t_TREAT_CERAMIC3_p6_3 t_BAKE_CERAMIC3_p6_k1_3) 4)) ?v_58 ?v_59 (or ?v_46 (< ?v_60 3)) (or (>= (- t_BAKE_CERAMIC3_p5_k2_2 t_MAKE_STRUCTURE_p5_p6_4) 1) (< ?v_62 4)) (or (<= ?v_61 0) (> ?v_61 5)) (or (>= ?v_62 1) (> ?v_61 4)) (or (> ?v_62 5) (< (- t_TREAT_CERAMIC3_p5_3 t_BAKE_CERAMIC3_p5_k1_3) 4)) ?v_58 ?v_59 (or ?v_46 (< ?v_63 3)))))))))))))))))))))
(check-sat)
(exit)
